NAME          ClpDefau  FREE
ROWS
 N  OBJROW
 L  ZMUNI1_PCT
 L  ZMUNI2_PCT
 L  ZMUNI3_PCT
 L  ZMUNI4_PCT
 L  ZMUNI5_PCT
 L  ZMUNI6_PCT
 L  ZMUNI7_PCT
 L  ZMUNI8_PCT
 L  ZMUNI9_PCT
COLUMNS
    QMUNI1 OBJROW 1.          
    QMUNI1 ZMUNI1_PCT 27843.7376  
    QMUNI1 ZMUNI2_PCT 1795.76874  
    QMUNI1 ZMUNI3_PCT 4302.311    
    QMUNI1 ZMUNI4_PCT 3090.33394  
    QMUNI1 ZMUNI5_PCT  -272.60781 
    QMUNI1 ZMUNI6_PCT  -19.59801  
    QMUNI1 ZMUNI7_PCT 1517.2958   
    QMUNI1 ZMUNI8_PCT 1258.4686   
    QMUNI1 ZMUNI9_PCT 507.4501    
    QMUNI2 OBJROW 1.          
    QMUNI2 ZMUNI1_PCT 1761.31726  
    QMUNI2 ZMUNI2_PCT 32605.12352 
    QMUNI2 ZMUNI3_PCT 2563.8581   
    QMUNI2 ZMUNI4_PCT 2667.28401  
    QMUNI2 ZMUNI5_PCT 239.94446   
    QMUNI2 ZMUNI6_PCT 296.30661   
    QMUNI2 ZMUNI7_PCT 997.3526    
    QMUNI2 ZMUNI8_PCT 1195.9076   
    QMUNI2 ZMUNI9_PCT 1062.39319  
    QMUNI3 OBJROW 1.          
    QMUNI3 ZMUNI1_PCT 4678.20168  
    QMUNI3 ZMUNI2_PCT 3136.39641  
    QMUNI3 ZMUNI3_PCT 29949.5697  
    QMUNI3 ZMUNI4_PCT 5478.09601  
    QMUNI3 ZMUNI5_PCT 328.58848   
    QMUNI3 ZMUNI6_PCT 541.16249   
    QMUNI3 ZMUNI7_PCT 2252.1973   
    QMUNI3 ZMUNI8_PCT 2299.3087   
    QMUNI3 ZMUNI9_PCT 1834.67865  
    QMUNI4 OBJROW 1.          
    QMUNI4 ZMUNI1_PCT 3250.78964  
    QMUNI4 ZMUNI2_PCT 2935.60028  
    QMUNI4 ZMUNI3_PCT 5474.7582   
    QMUNI4 ZMUNI4_PCT 99975.01374 
    QMUNI4 ZMUNI5_PCT  -195.12177 
    QMUNI4 ZMUNI6_PCT  -95.41512  
    QMUNI4 ZMUNI7_PCT 865.3641    
    QMUNI4 ZMUNI8_PCT 897.5982    
    QMUNI4 ZMUNI9_PCT 405.97915   
    QMUNI5 OBJROW 1.          
    QMUNI5 ZMUNI1_PCT 200.62924   
    QMUNI5 ZMUNI2_PCT 80.96695    
    QMUNI5 ZMUNI3_PCT 152.1111    
    QMUNI5 ZMUNI4_PCT 117.30194   
    QMUNI5 ZMUNI5_PCT 31575.77514 
    QMUNI5 ZMUNI6_PCT 2666.52107  
    QMUNI5 ZMUNI7_PCT 377.4643    
    QMUNI5 ZMUNI8_PCT 224.1134    
    QMUNI5 ZMUNI9_PCT 97.08404    
    QMUNI6 OBJROW 1.          
    QMUNI6 ZMUNI1_PCT 687.64687   
    QMUNI6 ZMUNI2_PCT 539.49356   
    QMUNI6 ZMUNI3_PCT 622.2725    
    QMUNI6 ZMUNI4_PCT 499.15314   
    QMUNI6 ZMUNI5_PCT 3192.47246  
    QMUNI6 ZMUNI6_PCT 31074.61929 
    QMUNI6 ZMUNI7_PCT 1353.4546   
    QMUNI6 ZMUNI8_PCT 1185.2264   
    QMUNI6 ZMUNI9_PCT 1164.2456   
    QMUNI7 OBJROW 1.          
    QMUNI7 ZMUNI1_PCT 1444.29207  
    QMUNI7 ZMUNI2_PCT 808.38203   
    QMUNI7 ZMUNI3_PCT 1260.5667   
    QMUNI7 ZMUNI4_PCT 951.14708   
    QMUNI7 ZMUNI5_PCT  -140.09476 
    QMUNI7 ZMUNI6_PCT 128.17382   
    QMUNI7 ZMUNI7_PCT 27481.4606  
    QMUNI7 ZMUNI8_PCT 2202.4154   
    QMUNI7 ZMUNI9_PCT 656.7955    
    QMUNI8 OBJROW 1.          
    QMUNI8 ZMUNI1_PCT 1514.72092  
    QMUNI8 ZMUNI2_PCT 1317.50107  
    QMUNI8 ZMUNI3_PCT 1532.65     
    QMUNI8 ZMUNI4_PCT 1216.07781  
    QMUNI8 ZMUNI5_PCT 493.33572   
    QMUNI8 ZMUNI6_PCT 621.84333   
    QMUNI8 ZMUNI7_PCT 2708.2443   
    QMUNI8 ZMUNI8_PCT 26618.1945  
    QMUNI8 ZMUNI9_PCT 1654.91104  
    QMUNI9 OBJROW 1.          
    QMUNI9 ZMUNI1_PCT 614.61926   
    QMUNI9 ZMUNI2_PCT 885.7727    
    QMUNI9 ZMUNI3_PCT 706.9588    
    QMUNI9 ZMUNI4_PCT 611.20987   
    QMUNI9 ZMUNI5_PCT 229.83551   
    QMUNI9 ZMUNI6_PCT 253.53431   
    QMUNI9 ZMUNI7_PCT 651.3595    
    QMUNI9 ZMUNI8_PCT 1113.5101   
    QMUNI9 ZMUNI9_PCT 24061.4891  
RHS
    RHS ZMUNI1_PCT 1.2059307369
    RHS ZMUNI2_PCT 1.7198839969
    RHS ZMUNI3_PCT 0.2581947255
    RHS ZMUNI4_PCT  -0.5376652 
    RHS ZMUNI5_PCT 0.8738396871
    RHS ZMUNI6_PCT 1.3060365234
    RHS ZMUNI7_PCT  -0.82551088
    RHS ZMUNI8_PCT -0.043497365
    RHS ZMUNI9_PCT 1.803291171 
BOUNDS
 LO BOUND QMUNI1 -0.001305696
 UP BOUND QMUNI1      1.1e+10
 LO BOUND QMUNI2 -0.000932711
 UP BOUND QMUNI2      1.1e+10
 LO BOUND QMUNI3 -0.00087625 
 UP BOUND QMUNI3      1.1e+10
 LO BOUND QMUNI4 -0.000379028
 UP BOUND QMUNI4      1.1e+10
 LO BOUND QMUNI5 -0.000798067
 UP BOUND QMUNI5      1.1e+10
 LO BOUND QMUNI6 -0.000964702
 UP BOUND QMUNI6      1.1e+10
 LO BOUND QMUNI7 -0.000490629
 UP BOUND QMUNI7      1.1e+10
 LO BOUND QMUNI8 -0.000657208
 UP BOUND QMUNI8      1.1e+10
 LO BOUND QMUNI9 -0.000891319
 UP BOUND QMUNI9      1.1e+10
ENDATA
